14,3	0,0	17,8	5,7	0,0	0,0	0,0	0,0	0,0	14,7
13,2	13,0	0,0	15,5	10,7	0,0	0,0	17,9	0,0	0,0
0,0	0,0	8,6	0,0	16,1	15,4	0,0	0,0	13,0	0,0
5,4	0,0	7,9	0,0	0,0	0,0	11,7	0,0	0,0	0,0
0,0	5,4	0,0	12,3	10,5	0,0	0,0	7,1	0,0	0,0
0,0	15,8	6,9	0,0	17,2	18,9	0,0	0,0	11,2	0,0
0,0	7,1	0,0	14,4	0,0	0,0	17,5	0,0	0,0	12,0
13,4	0,0	14,0	0,0	0,0	0,0	0,0	0,0	0,0	5,7
0,0	15,2	0,0	8,9	9,8	0,0	0,0	13,4	0,0	0,0
0,0	0,0	7,5	0,0	0,0	9,8	15,4	0,0	0,0	14,0
									
4,2	2,6	4,8	4,4	5,0	2,6	4,3	2,8	3,7	3,6
